DIMACS2
20 147 11 6 259 163 214 112 61 160 260 83 220 189 281 293 284 86 74 300 287
p edge 320 1460
e 0 197 1.0
e 1 139 1.0
e 1 0 1.0
e 2 11 21.0
e 2 190 2.0
e 2 42 10.0
e 2 229 3.0
e 2 58 19.0
e 2 77 2.0
e 2 261 5.0
e 2 117 12.0
e 2 182 1.0
e 2 41 5.0
e 2 133 23.0
e 2 245 7.0
e 2 266 2.0
e 2 79 21.0
e 2 63 23.0
e 2 125 18.0
e 2 112 13.0
e 2 177 8.0
e 2 183 13.0
e 2 72 20.0
e 2 129 5.0
e 2 256 24.0
e 2 231 9.0
e 2 211 7.0
e 3 102 1.0
e 4 209 1.0
e 4 106 4.0
e 4 105 9.0
e 4 137 8.0
e 4 2 21.0
e 4 51 7.0
e 4 153 10.0
e 4 73 7.0
e 4 97 11.0
e 4 312 10.0
e 4 61 23.0
e 4 92 4.0
e 5 211 1.0
e 6 70 9.0
e 6 219 25.0
e 6 134 42.0
e 6 122 4.0
e 6 299 4.0
e 6 89 42.0
e 6 138 45.0
e 6 158 44.0
e 6 146 7.0
e 6 102 10.0
e 6 101 33.0
e 6 290 2.0
e 6 37 35.0
e 6 15 44.0
e 6 25 49.0
e 6 291 29.0
e 6 33 21.0
e 6 63 23.0
e 6 162 12.0
e 6 163 21.0
e 6 272 28.0
e 6 82 18.0
e 6 34 46.0
e 6 85 41.0
e 6 16 6.0
e 6 181 23.0
e 6 125 11.0
e 6 305 31.0
e 6 282 19.0
e 6 44 43.0
e 6 111 18.0
e 6 17 45.0
e 6 249 20.0
e 6 177 20.0
e 6 132 31.0
e 6 287 24.0
e 6 26 46.0
e 6 7 31.0
e 6 86 33.0
e 6 0 35.0
e 6 274 4.0
e 6 123 7.0
e 6 239 31.0
e 6 241 45.0
e 6 27 48.0
e 6 250 8.0
e 6 220 36.0
e 6 78 1.0
e 7 312 2.0
e 7 197 3.0
e 7 250 1.0
e 7 145 4.0
e 8 238 1.0
e 8 121 1.0
e 9 73 1.0
e 9 37 1.0
e 10 265 2.0
e 10 98 1.0
e 10 72 2.0
e 11 59 1.0
e 11 55 5.0
e 11 155 32.0
e 11 192 2.0
e 11 207 9.0
e 11 194 15.0
e 11 190 30.0
e 11 137 30.0
e 11 63 23.0
e 11 193 11.0
e 11 13 31.0
e 11 82 4.0
e 11 308 40.0
e 11 10 23.0
e 11 32 12.0
e 11 53 41.0
e 11 289 7.0
e 11 1 17.0
e 11 297 17.0
e 11 133 26.0
e 11 28 27.0
e 11 30 49.0
e 11 18 4.0
e 11 240 43.0
e 11 125 8.0
e 11 251 16.0
e 11 315 2.0
e 11 31 17.0
e 11 0 33.0
e 11 161 39.0
e 11 111 26.0
e 11 217 14.0
e 11 177 49.0
e 11 72 45.0
e 11 3 44.0
e 11 122 11.0
e 11 21 21.0
e 11 309 28.0
e 11 129 8.0
e 11 87 23.0
e 11 296 31.0
e 11 311 48.0
e 11 243 44.0
e 11 119 24.0
e 11 252 22.0
e 11 153 18.0
e 11 123 23.0
e 11 48 35.0
e 12 113 1.0
e 12 208 4.0
e 12 144 1.0
e 13 207 1.0
e 13 117 1.0
e 13 219 1.0
e 14 260 4.0
e 14 129 1.0
e 14 72 10.0
e 14 229 11.0
e 14 233 6.0
e 14 232 8.0
e 14 21 12.0
e 14 105 2.0
e 14 242 4.0
e 14 313 3.0
e 14 210 9.0
e 14 9 11.0
e 15 193 1.0
e 16 71 1.0
e 17 58 2.0
e 17 292 4.0
e 17 265 5.0
e 17 178 4.0
e 18 127 1.0
e 19 258 1.0
e 19 248 1.0
e 19 306 1.0
e 20 265 1.0
e 20 29 1.0
e 21 144 1.0
e 22 123 2.0
e 22 92 3.0
e 23 245 1.0
e 23 131 1.0
e 24 55 1.0
e 24 310 2.0
e 24 137 1.0
e 25 240 1.0
e 26 226 1.0
e 27 241 1.0
e 27 184 1.0
e 27 185 2.0
e 28 134 2.0
e 29 173 1.0
e 30 60 1.0
e 31 133 1.0
e 31 300 5.0
e 32 58 2.0
e 33 118 1.0
e 34 40 1.0
e 35 197 2.0
e 35 315 1.0
e 35 89 1.0
e 36 282 1.0
e 36 238 1.0
e 36 216 2.0
e 36 195 1.0
e 37 141 1.0
e 38 200 3.0
e 38 223 1.0
e 38 21 2.0
e 39 161 1.0
e 39 287 8.0
e 39 245 1.0
e 39 276 1.0
e 40 202 1.0
e 40 10 1.0
e 40 276 1.0
e 41 318 1.0
e 42 306 1.0
e 43 190 1.0
e 44 206 2.0
e 45 30 1.0
e 45 48 1.0
e 45 123 2.0
e 45 304 2.0
e 46 38 2.0
e 47 119 2.0
e 47 56 2.0
e 47 111 1.0
e 47 158 1.0
e 48 101 1.0
e 49 107 1.0
e 50 42 1.0
e 51 52 2.0
e 52 139 1.0
e 52 207 2.0
e 53 158 3.0
e 53 230 1.0
e 54 56 1.0
e 54 3 1.0
e 54 93 1.0
e 55 109 1.0
e 56 0 1.0
e 57 263 3.0
e 58 174 2.0
e 59 118 2.0
e 59 49 4.0
e 59 249 3.0
e 59 182 2.0
e 59 312 1.0
e 60 213 1.0
e 60 194 2.0
e 60 169 1.0
e 61 220 33.0
e 61 203 11.0
e 61 311 7.0
e 61 295 18.0
e 61 302 23.0
e 61 188 39.0
e 61 276 44.0
e 61 168 38.0
e 61 21 17.0
e 61 84 30.0
e 61 198 38.0
e 61 275 47.0
e 61 85 18.0
e 61 27 48.0
e 61 246 21.0
e 61 312 34.0
e 61 301 37.0
e 61 83 13.0
e 61 267 18.0
e 61 247 7.0
e 61 72 38.0
e 61 177 44.0
e 61 279 41.0
e 61 259 23.0
e 61 111 10.0
e 61 206 32.0
e 61 193 30.0
e 61 17 42.0
e 61 288 35.0
e 61 22 29.0
e 61 184 45.0
e 61 250 38.0
e 61 124 9.0
e 61 182 26.0
e 61 153 33.0
e 61 209 4.0
e 61 241 32.0
e 61 115 40.0
e 61 26 12.0
e 61 212 35.0
e 61 28 45.0
e 61 218 17.0
e 61 208 33.0
e 61 69 47.0
e 61 5 23.0
e 61 73 38.0
e 62 139 1.0
e 62 271 1.0
e 63 107 1.0
e 64 243 1.0
e 65 258 1.0
e 66 262 1.0
e 66 284 27.0
e 66 53 2.0
e 66 78 1.0
e 67 99 1.0
e 67 191 1.0
e 68 238 1.0
e 68 12 1.0
e 69 161 1.0
e 69 112 2.0
e 70 52 1.0
e 70 5 1.0
e 71 115 1.0
e 72 84 2.0
e 73 229 1.0
e 74 17 6.0
e 74 21 39.0
e 74 190 25.0
e 74 301 40.0
e 74 98 23.0
e 74 57 26.0
e 74 93 28.0
e 74 212 18.0
e 74 94 29.0
e 74 30 4.0
e 74 89 2.0
e 74 126 33.0
e 74 196 38.0
e 74 205 9.0
e 74 50 39.0
e 74 176 27.0
e 74 313 7.0
e 74 314 33.0
e 74 100 28.0
e 74 228 25.0
e 74 129 2.0
e 74 282 28.0
e 74 19 34.0
e 74 92 7.0
e 74 22 3.0
e 74 51 48.0
e 74 107 6.0
e 74 119 28.0
e 74 84 33.0
e 74 145 6.0
e 74 163 38.0
e 74 125 25.0
e 74 108 39.0
e 74 199 33.0
e 74 226 35.0
e 74 284 22.0
e 74 253 5.0
e 74 209 18.0
e 74 298 37.0
e 74 200 16.0
e 74 271 17.0
e 74 53 44.0
e 74 70 24.0
e 74 247 33.0
e 74 68 20.0
e 74 164 20.0
e 74 62 7.0
e 75 317 1.0
e 75 142 1.0
e 75 269 1.0
e 76 161 2.0
e 76 103 1.0
e 76 49 1.0
e 76 127 1.0
e 77 303 4.0
e 77 190 4.0
e 77 296 6.0
e 77 11 47.0
e 78 50 1.0
e 79 294 2.0
e 80 82 1.0
e 81 147 44.0
e 81 303 1.0
e 81 268 2.0
e 81 222 1.0
e 82 218 1.0
e 83 7 43.0
e 83 184 29.0
e 83 273 40.0
e 83 143 5.0
e 83 69 26.0
e 83 288 7.0
e 83 251 6.0
e 83 80 23.0
e 83 67 24.0
e 83 178 21.0
e 83 138 48.0
e 83 77 42.0
e 83 163 14.0
e 83 302 11.0
e 83 194 10.0
e 83 120 2.0
e 83 290 32.0
e 83 179 6.0
e 83 71 27.0
e 83 51 1.0
e 83 44 49.0
e 83 86 8.0
e 83 52 49.0
e 83 53 33.0
e 83 256 35.0
e 83 274 30.0
e 83 289 45.0
e 83 154 3.0
e 83 300 17.0
e 83 258 2.0
e 83 107 34.0
e 83 137 23.0
e 83 141 46.0
e 83 64 42.0
e 83 301 25.0
e 83 41 44.0
e 83 126 20.0
e 83 156 25.0
e 83 68 14.0
e 83 204 34.0
e 83 35 7.0
e 83 144 32.0
e 83 175 36.0
e 83 268 35.0
e 83 70 19.0
e 83 81 14.0
e 83 108 34.0
e 83 220 44.0
e 84 309 1.0
e 85 307 1.0
e 86 108 11.0
e 86 192 20.0
e 86 79 23.0
e 86 125 34.0
e 86 216 19.0
e 86 243 4.0
e 86 132 2.0
e 86 44 12.0
e 86 39 8.0
e 86 311 37.0
e 86 194 23.0
e 86 111 19.0
e 86 154 19.0
e 86 26 8.0
e 86 149 18.0
e 86 76 30.0
e 86 293 33.0
e 86 159 46.0
e 86 131 3.0
e 86 35 9.0
e 86 210 14.0
e 86 155 9.0
e 86 94 17.0
e 86 289 32.0
e 86 203 3.0
e 86 315 7.0
e 86 113 48.0
e 86 286 23.0
e 86 109 37.0
e 86 174 24.0
e 86 211 10.0
e 86 179 28.0
e 86 212 25.0
e 86 139 7.0
e 86 290 15.0
e 86 59 23.0
e 86 227 49.0
e 86 219 36.0
e 86 244 4.0
e 86 57 38.0
e 86 207 39.0
e 86 306 19.0
e 86 38 39.0
e 86 258 34.0
e 86 77 33.0
e 86 234 6.0
e 86 7 41.0
e 87 0 1.0
e 88 210 1.0
e 88 294 1.0
e 88 154 1.0
e 89 48 1.0
e 90 169 1.0
e 90 54 1.0
e 91 61 10.0
e 91 137 2.0
e 91 301 1.0
e 91 164 2.0
e 92 77 5.0
e 93 173 1.0
e 94 177 1.0
e 95 266 1.0
e 96 288 1.0
e 96 27 1.0
e 97 235 1.0
e 98 7 1.0
e 99 310 2.0
e 99 33 1.0
e 99 266 2.0
e 100 49 1.0
e 101 291 1.0
e 102 149 1.0
e 103 273 1.0
e 104 50 1.0
e 104 30 2.0
e 104 0 1.0
e 104 150 1.0
e 105 112 43.0
e 105 296 2.0
e 105 62 1.0
e 105 41 1.0
e 105 201 1.0
e 106 272 1.0
e 107 46 1.0
e 108 89 2.0
e 109 19 1.0
e 110 251 1.0
e 110 25 1.0
e 111 158 3.0
e 112 162 33.0
e 112 234 46.0
e 112 118 45.0
e 112 86 37.0
e 112 127 24.0
e 112 9 37.0
e 112 39 19.0
e 112 189 3.0
e 112 65 7.0
e 112 254 34.0
e 112 144 2.0
e 112 7 40.0
e 112 128 30.0
e 112 217 27.0
e 112 73 29.0
e 112 196 35.0
e 112 95 22.0
e 112 248 39.0
e 112 255 33.0
e 112 74 3.0
e 112 186 2.0
e 112 209 15.0
e 112 218 16.0
e 112 240 21.0
e 112 123 41.0
e 112 275 11.0
e 112 268 49.0
e 112 20 4.0
e 112 229 11.0
e 112 282 29.0
e 112 49 49.0
e 112 163 2.0
e 112 171 23.0
e 112 66 37.0
e 112 17 1.0
e 112 61 7.0
e 112 55 39.0
e 112 267 21.0
e 112 111 45.0
e 112 164 38.0
e 112 158 44.0
e 112 180 29.0
e 112 288 5.0
e 112 241 26.0
e 112 119 48.0
e 112 96 44.0
e 113 100 2.0
e 114 57 1.0
e 114 206 1.0
e 115 124 1.0
e 115 276 1.0
e 116 31 1.0
e 117 312 2.0
e 118 219 1.0
e 119 57 1.0
e 120 204 2.0
e 121 17 4.0
e 122 297 1.0
e 123 198 2.0
e 124 92 1.0
e 124 160 29.0
e 125 71 1.0
e 126 2 20.0
e 127 254 2.0
e 128 263 1.0
e 129 218 1.0
e 130 254 1.0
e 130 244 1.0
e 130 61 37.0
e 131 175 1.0
e 132 143 1.0
e 133 90 1.0
e 134 123 1.0
e 135 134 1.0
e 135 39 1.0
e 135 313 1.0
e 135 29 1.0
e 136 257 1.0
e 136 183 1.0
e 137 310 3.0
e 138 195 3.0
e 138 1 1.0
e 139 143 1.0
e 140 90 1.0
e 140 276 1.0
e 141 266 3.0
e 141 21 1.0
e 142 309 1.0
e 142 228 2.0
e 142 44 1.0
e 143 137 1.0
e 144 211 2.0
e 145 214 23.0
e 145 114 6.0
e 145 229 3.0
e 145 242 8.0
e 145 212 4.0
e 145 203 1.0
e 145 279 9.0
e 145 256 2.0
e 145 81 4.0
e 145 3 1.0
e 146 10 2.0
e 147 6 7.0
e 147 165 4.0
e 147 85 27.0
e 147 280 36.0
e 147 112 49.0
e 147 245 3.0
e 147 287 41.0
e 147 198 23.0
e 147 146 23.0
e 147 181 30.0
e 147 56 17.0
e 147 22 9.0
e 147 179 10.0
e 147 92 7.0
e 147 317 33.0
e 147 270 46.0
e 147 62 37.0
e 147 246 8.0
e 147 47 31.0
e 147 269 3.0
e 147 77 3.0
e 147 106 12.0
e 147 242 10.0
e 147 140 13.0
e 147 36 37.0
e 147 54 27.0
e 147 273 10.0
e 147 111 31.0
e 147 78 49.0
e 147 53 4.0
e 147 13 39.0
e 147 93 46.0
e 147 156 35.0
e 147 184 2.0
e 147 7 40.0
e 147 100 47.0
e 147 217 8.0
e 147 233 6.0
e 147 153 20.0
e 147 228 29.0
e 147 148 19.0
e 147 309 21.0
e 147 277 41.0
e 147 96 12.0
e 147 59 34.0
e 147 45 45.0
e 147 307 10.0
e 147 226 16.0
e 148 152 1.0
e 149 307 1.0
e 150 294 1.0
e 151 308 2.0
e 151 138 1.0
e 152 198 1.0
e 153 279 2.0
e 154 247 1.0
e 155 93 1.0
e 156 220 12.0
e 156 228 1.0
e 157 183 1.0
e 157 151 1.0
e 158 92 4.0
e 159 226 1.0
e 159 270 1.0
e 159 236 1.0
e 160 239 28.0
e 160 209 30.0
e 160 9 48.0
e 160 280 2.0
e 160 286 18.0
e 160 176 26.0
e 160 134 6.0
e 160 263 19.0
e 160 282 44.0
e 160 61 30.0
e 160 28 3.0
e 160 157 27.0
e 160 313 34.0
e 160 273 32.0
e 160 206 14.0
e 160 155 35.0
e 160 45 48.0
e 160 182 46.0
e 160 30 45.0
e 160 230 30.0
e 160 106 26.0
e 160 219 31.0
e 160 74 1.0
e 160 215 33.0
e 160 22 27.0
e 160 29 49.0
e 160 284 31.0
e 160 314 44.0
e 160 141 34.0
e 160 21 29.0
e 160 224 45.0
e 160 123 36.0
e 160 154 38.0
e 160 217 30.0
e 160 135 24.0
e 160 77 34.0
e 160 266 21.0
e 160 91 11.0
e 160 92 2.0
e 160 152 24.0
e 160 252 29.0
e 160 93 13.0
e 160 58 5.0
e 160 69 28.0
e 160 82 47.0
e 160 6 21.0
e 160 317 29.0
e 161 58 2.0
e 162 133 1.0
e 162 39 3.0
e 162 172 1.0
e 162 102 5.0
e 162 140 1.0
e 163 92 20.0
e 163 271 45.0
e 163 20 18.0
e 163 107 45.0
e 163 316 14.0
e 163 41 29.0
e 163 292 38.0
e 163 58 14.0
e 163 13 34.0
e 163 24 22.0
e 163 72 27.0
e 163 73 27.0
e 163 31 41.0
e 163 7 5.0
e 163 254 23.0
e 163 75 6.0
e 163 122 4.0
e 163 290 1.0
e 163 25 39.0
e 163 313 45.0
e 163 306 11.0
e 163 281 42.0
e 163 171 42.0
e 163 77 29.0
e 163 113 16.0
e 163 38 43.0
e 163 114 41.0
e 163 62 4.0
e 163 2 45.0
e 163 80 26.0
e 163 179 32.0
e 163 275 49.0
e 163 173 10.0
e 163 277 11.0
e 163 187 21.0
e 163 266 12.0
e 163 160 9.0
e 163 282 38.0
e 163 318 33.0
e 163 93 49.0
e 163 197 16.0
e 163 241 38.0
e 163 115 17.0
e 163 165 29.0
e 164 229 2.0
e 165 224 1.0
e 165 47 1.0
e 166 71 1.0
e 167 295 1.0
e 167 121 1.0
e 167 269 1.0
e 168 301 2.0
e 169 145 5.0
e 169 243 1.0
e 170 217 1.0
e 171 3 1.0
e 172 233 1.0
e 173 73 1.0
e 174 65 1.0
e 175 186 1.0
e 176 244 2.0
e 176 189 14.0
e 177 78 1.0
e 178 263 1.0
e 179 225 1.0
e 180 85 1.0
e 181 150 1.0
e 182 164 1.0
e 183 289 2.0
e 184 166 1.0
e 185 198 1.0
e 186 172 1.0
e 186 268 3.0
e 187 50 1.0
e 187 146 1.0
e 187 95 1.0
e 188 167 1.0
e 189 294 4.0
e 189 305 32.0
e 189 308 45.0
e 189 254 31.0
e 189 18 14.0
e 189 266 20.0
e 189 233 33.0
e 189 296 10.0
e 189 135 34.0
e 189 68 22.0
e 189 241 27.0
e 189 281 28.0
e 189 15 11.0
e 189 171 9.0
e 189 315 4.0
e 189 274 29.0
e 189 128 45.0
e 189 106 13.0
e 189 144 44.0
e 189 77 35.0
e 189 107 15.0
e 189 218 44.0
e 189 48 43.0
e 189 248 39.0
e 189 59 37.0
e 189 158 30.0
e 189 183 41.0
e 189 101 4.0
e 189 93 5.0
e 189 164 6.0
e 189 295 23.0
e 189 131 1.0
e 189 298 26.0
e 189 89 6.0
e 189 226 35.0
e 189 84 27.0
e 189 98 45.0
e 189 33 18.0
e 189 205 43.0
e 189 243 13.0
e 189 275 14.0
e 189 79 23.0
e 189 80 27.0
e 189 307 13.0
e 189 97 23.0
e 189 55 44.0
e 189 172 32.0
e 190 42 1.0
e 191 275 2.0
e 191 183 2.0
e 191 62 1.0
e 192 56 1.0
e 193 18 1.0
e 194 308 2.0
e 195 47 2.0
e 195 16 3.0
e 196 202 1.0
e 197 122 1.0
e 198 205 1.0
e 199 73 1.0
e 199 212 2.0
e 199 160 22.0
e 200 281 12.0
e 200 242 1.0
e 201 15 1.0
e 201 317 1.0
e 201 108 3.0
e 202 258 1.0
e 203 220 45.0
e 204 185 1.0
e 205 57 1.0
e 206 223 1.0
e 207 286 2.0
e 208 300 36.0
e 208 303 1.0
e 208 33 5.0
e 208 105 3.0
e 208 247 2.0
e 209 108 1.0
e 210 241 2.0
e 211 202 1.0
e 212 3 1.0
e 213 227 1.0
e 213 204 1.0
e 213 223 2.0
e 214 243 22.0
e 214 49 47.0
e 214 35 26.0
e 214 303 10.0
e 214 89 4.0
e 214 285 49.0
e 214 217 4.0
e 214 48 40.0
e 214 173 23.0
e 214 116 36.0
e 214 240 39.0
e 214 280 41.0
e 214 20 8.0
e 214 50 40.0
e 214 159 26.0
e 214 259 36.0
e 214 313 26.0
e 214 118 49.0
e 214 236 25.0
e 214 28 2.0
e 214 146 38.0
e 214 295 33.0
e 214 250 16.0
e 214 85 32.0
e 214 174 46.0
e 214 99 5.0
e 214 121 29.0
e 214 125 22.0
e 214 175 6.0
e 214 96 43.0
e 214 82 49.0
e 214 273 45.0
e 214 84 27.0
e 214 268 15.0
e 214 311 14.0
e 214 53 32.0
e 214 247 11.0
e 214 4 38.0
e 214 113 33.0
e 214 104 31.0
e 214 18 45.0
e 214 40 44.0
e 214 262 35.0
e 214 101 17.0
e 214 241 4.0
e 214 163 8.0
e 214 67 48.0
e 214 244 26.0
e 215 77 2.0
e 216 59 1.0
e 216 161 2.0
e 217 220 10.0
e 218 43 1.0
e 219 278 1.0
e 220 28 30.0
e 220 32 34.0
e 220 207 40.0
e 220 114 36.0
e 220 157 6.0
e 220 146 38.0
e 220 173 39.0
e 220 234 40.0
e 220 177 37.0
e 220 99 8.0
e 220 221 17.0
e 220 296 2.0
e 220 169 23.0
e 220 113 40.0
e 220 150 4.0
e 220 182 21.0
e 220 0 25.0
e 220 279 40.0
e 220 254 9.0
e 220 281 11.0
e 220 48 22.0
e 220 261 7.0
e 220 91 10.0
e 220 38 39.0
e 220 147 34.0
e 220 152 46.0
e 220 33 1.0
e 220 65 6.0
e 220 290 35.0
e 220 27 28.0
e 220 184 24.0
e 220 253 7.0
e 220 126 40.0
e 220 148 21.0
e 220 272 42.0
e 220 312 29.0
e 220 20 17.0
e 220 34 27.0
e 220 185 45.0
e 220 49 25.0
e 220 232 40.0
e 220 97 37.0
e 220 137 47.0
e 221 263 2.0
e 221 212 1.0
e 221 170 2.0
e 222 29 1.0
e 223 182 2.0
e 224 56 1.0
e 225 41 1.0
e 226 92 2.0
e 227 131 3.0
e 227 144 1.0
e 228 184 2.0
e 229 29 1.0
e 230 223 1.0
e 231 137 1.0
e 232 313 1.0
e 233 79 1.0
e 234 71 1.0
e 235 130 1.0
e 236 143 1.0
e 237 116 1.0
e 237 54 2.0
e 237 152 2.0
e 237 198 1.0
e 238 258 2.0
e 239 95 4.0
e 239 137 9.0
e 239 162 9.0
e 239 199 10.0
e 239 122 7.0
e 239 210 1.0
e 239 240 5.0
e 239 232 7.0
e 239 165 1.0
e 239 151 9.0
e 239 221 11.0
e 240 291 1.0
e 241 170 1.0
e 242 313 1.0
e 243 43 1.0
e 244 253 1.0
e 245 149 1.0
e 246 291 1.0
e 246 310 1.0
e 247 43 1.0
e 248 51 1.0
e 249 276 1.0
e 250 207 1.0
e 251 75 2.0
e 252 74 23.0
e 252 90 5.0
e 252 173 5.0
e 252 2 14.0
e 252 38 1.0
e 253 32 1.0
e 254 306 1.0
e 255 236 1.0
e 256 317 1.0
e 257 33 1.0
e 259 281 27.0
e 259 197 28.0
e 259 66 24.0
e 259 183 25.0
e 259 68 19.0
e 259 59 21.0
e 259 137 9.0
e 259 230 24.0
e 259 238 6.0
e 259 301 1.0
e 259 48 31.0
e 259 253 4.0
e 259 53 6.0
e 259 104 30.0
e 259 242 48.0
e 259 60 36.0
e 259 36 3.0
e 259 217 40.0
e 259 128 40.0
e 259 73 47.0
e 259 77 19.0
e 259 139 38.0
e 259 39 5.0
e 259 149 47.0
e 259 62 43.0
e 259 100 40.0
e 259 215 5.0
e 259 120 37.0
e 259 260 12.0
e 259 103 42.0
e 259 74 23.0
e 259 274 35.0
e 259 189 28.0
e 259 282 44.0
e 259 250 32.0
e 259 163 22.0
e 259 134 4.0
e 259 4 32.0
e 259 216 2.0
e 259 277 5.0
e 259 132 2.0
e 259 272 36.0
e 259 16 5.0
e 259 312 12.0
e 259 37 48.0
e 259 302 31.0
e 259 218 14.0
e 260 69 28.0
e 260 106 26.0
e 260 28 49.0
e 260 305 22.0
e 260 281 37.0
e 260 1 6.0
e 260 15 19.0
e 260 61 23.0
e 260 48 18.0
e 260 98 47.0
e 260 133 28.0
e 260 118 6.0
e 260 233 36.0
e 260 289 29.0
e 260 49 22.0
e 260 20 10.0
e 260 123 4.0
e 260 296 13.0
e 260 128 48.0
e 260 248 39.0
e 260 275 5.0
e 260 99 46.0
e 260 282 30.0
e 260 291 28.0
e 260 212 36.0
e 260 115 29.0
e 260 7 15.0
e 260 295 38.0
e 260 179 31.0
e 260 62 28.0
e 260 156 22.0
e 260 78 27.0
e 260 180 46.0
e 260 164 36.0
e 260 192 38.0
e 260 159 43.0
e 260 125 38.0
e 260 257 4.0
e 260 82 31.0
e 260 137 37.0
e 260 144 42.0
e 260 44 3.0
e 260 266 42.0
e 260 32 26.0
e 260 136 42.0
e 260 196 23.0
e 261 231 4.0
e 261 100 4.0
e 261 133 5.0
e 261 185 5.0
e 262 160 9.0
e 262 158 2.0
e 263 5 1.0
e 264 173 1.0
e 264 221 1.0
e 265 50 1.0
e 266 56 1.0
e 267 28 3.0
e 268 171 1.0
e 269 25 1.0
e 270 285 1.0
e 271 43 1.0
e 272 225 1.0
e 273 242 1.0
e 274 54 1.0
e 275 267 1.0
e 276 241 1.0
e 277 204 1.0
e 278 148 1.0
e 279 218 1.0
e 280 260 7.0
e 280 54 2.0
e 280 205 1.0
e 281 224 5.0
e 281 265 44.0
e 281 144 1.0
e 281 150 35.0
e 281 225 45.0
e 281 28 34.0
e 281 201 42.0
e 281 165 26.0
e 281 316 39.0
e 281 101 45.0
e 281 226 43.0
e 281 160 20.0
e 281 57 37.0
e 281 54 45.0
e 281 136 11.0
e 281 264 43.0
e 281 180 46.0
e 281 64 4.0
e 281 168 10.0
e 281 111 7.0
e 281 14 2.0
e 281 99 16.0
e 281 116 17.0
e 281 84 5.0
e 281 213 7.0
e 281 162 38.0
e 281 302 17.0
e 281 197 9.0
e 281 87 23.0
e 281 235 6.0
e 281 67 21.0
e 281 212 42.0
e 281 124 13.0
e 281 130 4.0
e 281 82 26.0
e 281 106 46.0
e 281 237 11.0
e 281 249 44.0
e 281 308 27.0
e 281 254 22.0
e 281 83 12.0
e 281 192 25.0
e 281 199 25.0
e 282 12 1.0
e 283 93 1.0
e 284 64 30.0
e 284 219 12.0
e 284 205 42.0
e 284 175 1.0
e 284 58 24.0
e 284 34 46.0
e 284 52 7.0
e 284 90 25.0
e 284 24 14.0
e 284 54 31.0
e 284 138 25.0
e 284 75 4.0
e 284 121 10.0
e 284 44 47.0
e 284 293 11.0
e 284 136 32.0
e 284 101 31.0
e 284 12 23.0
e 284 314 22.0
e 284 150 19.0
e 284 47 42.0
e 284 89 19.0
e 284 5 38.0
e 284 71 27.0
e 284 78 49.0
e 284 311 6.0
e 284 164 38.0
e 284 8 8.0
e 284 241 8.0
e 284 218 32.0
e 284 51 11.0
e 284 16 26.0
e 284 234 34.0
e 284 20 45.0
e 284 243 39.0
e 284 181 27.0
e 284 224 6.0
e 284 38 39.0
e 284 167 40.0
e 284 316 3.0
e 284 91 22.0
e 284 277 34.0
e 284 83 28.0
e 284 77 48.0
e 284 25 44.0
e 284 13 32.0
e 285 289 1.0
e 286 61 41.0
e 287 35 47.0
e 287 291 36.0
e 287 119 4.0
e 287 0 36.0
e 287 23 31.0
e 287 53 14.0
e 287 286 9.0
e 287 7 49.0
e 287 169 41.0
e 287 304 26.0
e 287 107 6.0
e 287 24 48.0
e 287 94 28.0
e 287 311 38.0
e 287 144 40.0
e 287 25 19.0
e 287 108 48.0
e 287 278 5.0
e 287 154 26.0
e 287 215 28.0
e 287 251 32.0
e 287 139 47.0
e 287 316 41.0
e 287 243 25.0
e 287 189 9.0
e 287 36 30.0
e 287 197 37.0
e 287 160 25.0
e 287 124 7.0
e 287 190 4.0
e 287 300 8.0
e 287 125 24.0
e 287 182 36.0
e 287 259 34.0
e 287 152 46.0
e 287 263 4.0
e 287 68 5.0
e 287 229 24.0
e 287 195 8.0
e 287 155 13.0
e 287 247 16.0
e 287 232 45.0
e 287 54 12.0
e 287 168 13.0
e 287 40 45.0
e 287 126 35.0
e 288 106 1.0
e 289 53 2.0
e 290 276 1.0
e 291 283 1.0
e 292 24 1.0
e 292 99 1.0
e 293 79 24.0
e 293 264 41.0
e 293 312 19.0
e 293 17 21.0
e 293 176 19.0
e 293 167 2.0
e 293 274 8.0
e 293 173 3.0
e 293 129 17.0
e 293 57 4.0
e 293 207 28.0
e 293 236 19.0
e 293 28 42.0
e 293 223 11.0
e 293 106 23.0
e 293 208 47.0
e 293 250 10.0
e 293 222 49.0
e 293 253 48.0
e 293 0 1.0
e 293 64 45.0
e 293 164 22.0
e 293 234 18.0
e 293 179 2.0
e 293 229 24.0
e 293 24 24.0
e 293 287 2.0
e 293 241 45.0
e 293 216 43.0
e 293 195 7.0
e 293 194 37.0
e 293 124 47.0
e 293 76 32.0
e 293 90 39.0
e 293 77 6.0
e 293 283 37.0
e 293 288 45.0
e 293 242 4.0
e 293 230 17.0
e 293 168 3.0
e 293 174 33.0
e 293 80 21.0
e 293 188 6.0
e 293 197 24.0
e 293 30 42.0
e 293 212 14.0
e 293 11 30.0
e 294 317 2.0
e 295 14 6.0
e 296 70 1.0
e 297 283 1.0
e 297 177 2.0
e 298 80 1.0
e 299 163 43.0
e 299 266 9.0
e 299 22 8.0
e 299 289 4.0
e 299 302 2.0
e 299 276 5.0
e 299 80 3.0
e 299 77 2.0
e 299 274 1.0
e 299 150 9.0
e 299 194 1.0
e 299 205 12.0
e 300 64 45.0
e 300 184 28.0
e 300 77 32.0
e 300 65 31.0
e 300 255 13.0
e 300 303 31.0
e 300 132 42.0
e 300 116 12.0
e 300 182 40.0
e 300 149 2.0
e 300 272 17.0
e 300 17 9.0
e 300 288 7.0
e 300 46 47.0
e 300 131 6.0
e 300 0 42.0
e 300 252 6.0
e 300 122 48.0
e 300 302 30.0
e 300 98 18.0
e 300 282 11.0
e 300 153 22.0
e 300 26 40.0
e 300 309 22.0
e 300 147 15.0
e 300 123 32.0
e 300 5 22.0
e 300 183 46.0
e 300 299 19.0
e 300 290 32.0
e 300 15 4.0
e 300 279 34.0
e 300 79 39.0
e 300 218 17.0
e 300 95 40.0
e 300 311 6.0
e 300 32 29.0
e 300 24 40.0
e 300 175 26.0
e 300 315 36.0
e 300 142 23.0
e 300 226 42.0
e 300 192 26.0
e 300 308 42.0
e 300 194 16.0
e 301 149 1.0
e 302 18 1.0
e 303 88 1.0
e 304 16 1.0
e 304 282 2.0
e 305 4 12.0
e 306 111 2.0
e 307 190 1.0
e 309 269 1.0
e 310 188 1.0
e 311 87 1.0
e 312 261 3.0
e 313 56 1.0
e 314 296 1.0
e 315 74 20.0
e 315 147 3.0
e 316 280 1.0
e 317 113 2.0
e 318 43 1.0
e 319 257 1.0
e 319 209 1.0
e 319 101 1.0
e 319 86 30.0
